Instance name: /home/cuong/CLionProjects/uMV-FSTSP/50_dis_rand_ins/v65
Write arg val: 1

drone speed: 1 miles/minute
uav non-eligible customer: 2 11 
Printing tau:
0 2.89464 42.5983 53.7779 29.8129 24.2654 24.6611 64.5905 46.9426 95.4558 86.1619 0 
2.89464 0 45.4929 53.2806 29.3157 23.7682 24.1638 61.6959 44.0479 94.9586 85.6647 2.89464 
42.5983 45.4929 0 27.3775 53.6186 45.8467 48.5946 107.189 89.5409 69.0555 59.7615 42.5983 
53.7779 53.2806 27.3775 0 46.7159 38.944 41.6919 100.286 82.6382 44.7434 38.8179 53.7779 
29.8129 29.3157 53.6186 46.7159 0 7.77192 5.15188 53.5703 35.9223 65.6429 56.349 29.8129 
24.2654 23.7682 45.8467 38.944 7.77192 0 2.74792 61.3422 43.6942 71.1904 61.8965 24.2654 
24.6611 24.1638 48.5946 41.6919 5.15188 2.74792 0 58.5942 40.9463 70.7948 61.5009 24.6611 
64.5905 61.6959 107.189 100.286 53.5703 61.3422 58.5942 0 17.648 56.5966 61.4683 64.5905 
46.9426 44.0479 89.5409 82.6382 35.9223 43.6942 40.9463 17.648 0 54.9347 45.6408 46.9426 
95.4558 94.9586 69.0555 44.7434 65.6429 71.1904 70.7948 56.5966 54.9347 0 9.29392 95.4558 
86.1619 85.6647 59.7615 38.8179 56.349 61.8965 61.5009 61.4683 45.6408 9.29392 0 86.1619 
0 0 0 0 0 0 0 0 0 0 0 0 
Printing tau_prime:
0 0.778799 13.289 17.1154 8.42815 6.49174 6.72978 19.9878 16.4436 25.425 22.8621 0 
0.778799 0 13.8815 17.4446 8.06658 6.3032 6.45997 19.2642 15.7815 25.2325 22.7154 0.778799 
13.289 13.8815 0 7.48674 14.2465 12.1701 12.8938 28.6141 24.0365 22.8657 19.9523 13.289 
17.1154 17.4446 7.48674 0 13.9223 12.9568 13.4844 26.885 22.1929 16.2142 13.4048 17.1154 
8.42815 8.06658 14.2465 13.9223 0 2.53198 1.90813 14.4061 9.93954 17.4141 15.0878 8.42815 
6.49174 6.3032 12.1701 12.9568 2.53198 0 0.736166 16.7198 12.362 18.9397 16.4128 6.49174 
6.72978 6.45997 12.8938 13.4844 1.90813 0.736166 0 15.9868 11.6436 18.7897 16.3257 6.72978 
19.9878 19.2642 28.6141 26.885 14.4061 16.7198 15.9868 0 4.70033 21.0271 20.5668 19.9878 
16.4436 15.7815 24.0365 22.1929 9.93954 12.362 11.6436 4.70033 0 17.6964 16.7774 16.4436 
25.425 25.2325 22.8657 16.2142 17.4141 18.9397 18.7897 21.0271 17.6964 0 2.9227 25.425 
22.8621 22.7154 19.9523 13.4048 15.0878 16.4128 16.3257 20.5668 16.7774 2.9227 0 22.8621 
0 0 0 0 0 0 0 0 0 0 0 0 
Version identifier: 22.1.1.0 | 2022-11-28 | 9160aff4d
CPXPARAM_MIP_Tolerances_Integrality              0
Tried aggregator 1 time.
MIP Presolve eliminated 1 rows and 12 columns.
MIP Presolve modified 20 coefficients.
Reduced MIP has 122 rows, 120 columns, and 510 nonzeros.
Reduced MIP has 110 binaries, 0 generals, 0 SOSs, and 0 indicators.
Presolve time = 0.00 sec. (0.27 ticks)
Found incumbent of value 557.742320 after 0.00 sec. (0.75 ticks)
Probing time = 0.00 sec. (0.26 ticks)
Cover probing fixed 0 vars, tightened 10 bounds.
Tried aggregator 1 time.
Detecting symmetries...
MIP Presolve eliminated 10 rows and 0 columns.
MIP Presolve modified 180 coefficients.
Reduced MIP has 112 rows, 120 columns, and 490 nonzeros.
Reduced MIP has 110 binaries, 0 generals, 0 SOSs, and 0 indicators.
Presolve time = 0.00 sec. (0.35 ticks)
Probing time = 0.00 sec. (0.26 ticks)
Clique table members: 67.
MIP emphasis: balance optimality and feasibility.
MIP search method: dynamic search.
Parallel mode: deterministic, using up to 20 threads.
Root relaxation solution time = 0.00 sec. (0.21 ticks)

        Nodes                                         Cuts/
   Node  Left     Objective  IInf  Best Integer    Best Bound    ItCnt     Gap

*     0+    0                          557.7423        0.0000           100.00%
      0     0      153.0054    21      557.7423      153.0054       24   72.57%
      0     0      245.1920    18      557.7423      Cuts: 56       56   56.04%
*     0+    0                          414.1239      245.1920            40.79%
      0     0      245.5946    20      414.1239      Cuts: 34       70   40.70%
*     0+    0                          342.9221      245.5946            28.38%
      0     0      245.6312    20      342.9221      Cuts: 30       81   28.37%
*     0+    0                          342.8525      245.6312            28.36%
      0     0      245.6352    20      342.8525   Impl Bds: 1       82   28.36%
*     0+    0                          266.2090      245.6352             7.73%
*     0+    0                          262.8172      245.6352             6.54%

Clique cuts applied:  4
Implied bound cuts applied:  10
Mixed integer rounding cuts applied:  1
Multi commodity flow cuts applied:  1
Lift and project cuts applied:  1
Gomory fractional cuts applied:  1

Root node processing (before b&c):
  Real time             =    0.02 sec. (10.20 ticks)
Parallel b&c, 20 threads:
  Real time             =    0.00 sec. (0.00 ticks)
  Sync time (average)   =    0.00 sec.
  Wait time (average)   =    0.00 sec.
                          ------------
Total (root+branch&cut) =    0.02 sec. (10.20 ticks)

TSP solution for this instance: 0 1 5 6 4 8 7 9 10 3 2 11 
12
Warmstart X[1][0] == 1
Warmstart X[2][1] == 1
Warmstart X[3][5] == 1
Warmstart X[4][6] == 1
Warmstart X[5][4] == 1
Warmstart X[6][8] == 1
Warmstart X[7][7] == 1
Warmstart X[8][9] == 1
Warmstart X[9][10] == 1
Warmstart X[10][3] == 1
Warmstart X[11][2] == 1
---------------------------------------------
Calculate max stage gap for sortie.... 
Stage gap calculation consumes too much memory. No constraint was added.
---------------------------------------------
Num constraint added = 5346
Warning:  Output names have been modified due to duplicate names or characters invalid in LP format.
Version identifier: 22.1.1.0 | 2022-11-28 | 9160aff4d
CPXPARAM_TimeLimit                               200
CPXPARAM_MIP_Tolerances_Integrality              0
1 of 1 MIP starts provided solutions.
MIP start 'm1' defined initial solution with objective 262.8172.
Tried aggregator 2 times.
MIP Presolve eliminated 6307 rows and 1916 columns.
MIP Presolve modified 2064 coefficients.
Aggregator did 40 substitutions.
Reduced MIP has 1292 rows, 2820 columns, and 29230 nonzeros.
Reduced MIP has 2799 binaries, 0 generals, 0 SOSs, and 0 indicators.
Presolve time = 0.03 sec. (77.02 ticks)
Probing fixed 596 vars, tightened 0 bounds.
Probing changed sense of 4 constraints.
Probing time = 0.03 sec. (67.39 ticks)
Cover probing fixed 0 vars, tightened 25 bounds.
Tried aggregator 3 times.
MIP Presolve eliminated 181 rows and 596 columns.
MIP Presolve modified 597 coefficients.
Aggregator did 18 substitutions.
Reduced MIP has 1093 rows, 2206 columns, and 21525 nonzeros.
Reduced MIP has 2185 binaries, 0 generals, 0 SOSs, and 0 indicators.
Presolve time = 0.02 sec. (41.46 ticks)
Probing time = 0.00 sec. (5.16 ticks)
Tried aggregator 1 time.
Detecting symmetries...
Reduced MIP has 1093 rows, 2206 columns, and 21525 nonzeros.
Reduced MIP has 2185 binaries, 0 generals, 0 SOSs, and 0 indicators.
Presolve time = 0.01 sec. (15.62 ticks)
Probing time = 0.00 sec. (5.13 ticks)
Clique table members: 12488.
MIP emphasis: balance optimality and feasibility.
MIP search method: dynamic search.
Parallel mode: deterministic, using up to 20 threads.
Root relaxation solution time = 0.09 sec. (188.69 ticks)

        Nodes                                         Cuts/
   Node  Left     Objective  IInf  Best Integer    Best Bound    ItCnt     Gap

*     0+    0                          262.8172        2.8946            98.90%
      0     0      192.0875   162      262.8172      192.0875     2568   26.91%
      0     0      221.3664   144      262.8172      Cuts: 38     4198   15.77%
      0     0      231.6416   137      262.8172      Cuts: 24     4502   11.86%
      0     0      236.8963   153      262.8172      Cuts: 23     5617    9.86%
Detecting symmetries...

Repeating presolve.
Tried aggregator 2 times.
MIP Presolve eliminated 56 rows and 570 columns.
MIP Presolve modified 119 coefficients.
Aggregator did 20 substitutions.
Reduced MIP has 1016 rows, 1616 columns, and 17372 nonzeros.
Reduced MIP has 1595 binaries, 0 generals, 0 SOSs, and 0 indicators.
Presolve time = 0.01 sec. (25.62 ticks)
Probing fixed 71 vars, tightened 0 bounds.
Probing time = 0.02 sec. (45.14 ticks)
Tried aggregator 2 times.
MIP Presolve eliminated 41 rows and 72 columns.
MIP Presolve modified 21 coefficients.
Aggregator did 3 substitutions.
Reduced MIP has 972 rows, 1541 columns, and 16229 nonzeros.
Reduced MIP has 1520 binaries, 0 generals, 0 SOSs, and 0 indicators.
Presolve time = 0.01 sec. (18.33 ticks)
Probing fixed 1 vars, tightened 0 bounds.
Probing time = 0.01 sec. (13.73 ticks)
Cover probing fixed 0 vars, tightened 4 bounds.
Tried aggregator 2 times.
Detecting symmetries...
MIP Presolve eliminated 0 rows and 1 columns.
MIP Presolve modified 29 coefficients.
Aggregator did 1 substitutions.
Reduced MIP has 971 rows, 1539 columns, and 16224 nonzeros.
Reduced MIP has 1518 binaries, 0 generals, 0 SOSs, and 0 indicators.
Presolve time = 0.01 sec. (22.08 ticks)
Represolve time = 0.09 sec. (141.55 ticks)
Probing time = 0.00 sec. (5.11 ticks)
Clique table members: 10990.
MIP emphasis: balance optimality and feasibility.
MIP search method: dynamic search.
Parallel mode: deterministic, using up to 20 threads.
Root relaxation solution time = 0.09 sec. (185.50 ticks)

        Nodes                                         Cuts/
   Node  Left     Objective  IInf  Best Integer    Best Bound    ItCnt     Gap

*     0+    0                          262.8172      236.8963             9.86%
      0     0      236.9620   138      262.8172      236.9620     5646    9.84%
      0     0      243.9081   206      262.8172      Cuts: 18     7534    7.19%
      0     0      244.3367   210      262.8172      Cuts: 21     8072    7.03%
      0     0      244.6898   234      262.8172      Cuts: 18     8438    6.90%
      0     0      244.9300   309      262.8172       Cuts: 7     8835    6.81%
      0     0      245.0043   280      262.8172   ZeroHalf: 3     9051    6.78%
      0     0      245.0644   295      262.8172       Cuts: 6     9462    6.75%
      0     0      245.0653   296      262.8172    GUBcuts: 1     9526    6.75%
      0     0      245.0653   298      262.8172   ZeroHalf: 1     9553    6.75%
Detecting symmetries...
      0     2      245.0653   289      262.8172      246.1369     9559    6.35%
Elapsed time = 1.34 sec. (2254.56 ticks, tree = 0.02 MB, solutions = 1)
     47     4      247.1640   178      262.8172      246.1369    14902    6.35%
*    81     7      integral     0      262.4648      247.8084    27547    5.58%
     97     4    infeasible            262.4648      252.0947    34542    3.95%

GUB cover cuts applied:  9
Cover cuts applied:  6
Implied bound cuts applied:  12
Mixed integer rounding cuts applied:  1
Zero-half cuts applied:  20
Lift and project cuts applied:  1
Gomory fractional cuts applied:  6

Root node processing (before b&c):
  Real time             =    1.31 sec. (2226.95 ticks)
Parallel b&c, 20 threads:
  Real time             =    0.44 sec. (681.78 ticks)
  Sync time (average)   =    0.36 sec.
  Wait time (average)   =    0.00 sec.
                          ------------
Total (root+branch&cut) =    1.76 sec. (2908.72 ticks)
Feasible solution found!
Truck nodes:
Stage 1 at customer 0 with arrival time is: 0
Stage 1 at customer 0 with departure time is: 0
Stage 2 at customer 2 with arrival time is: 42.5983
Stage 2 at customer 2 with departure time is: 42.5983
Stage 3 at customer 3 with arrival time is: 69.9758
Stage 3 at customer 3 with departure time is: 69.9758
Stage 4 at customer 10 with arrival time is: 108.794
Stage 4 at customer 10 with departure time is: 108.794
Stage 5 at customer 9 with arrival time is: 118.088
Stage 5 at customer 9 with departure time is: 118.088
Stage 6 at customer 7 with arrival time is: 174.684
Stage 6 at customer 7 with departure time is: 174.684
Stage 7 at customer 8 with arrival time is: 192.332
Stage 7 at customer 8 with departure time is: 192.332
Stage 8 at customer 4 with arrival time is: 228.255
Stage 8 at customer 4 with departure time is: 229.255
Stage 9 at customer 6 with arrival time is: 234.406
Stage 9 at customer 6 with departure time is: 235.406
Stage 10 at customer 1 with arrival time is: 259.57
Stage 10 at customer 1 with departure time is: 259.57
Stage 11 at customer 11 with arrival time is: 262.465
Stage 11 at customer 11 with departure time is: 262.465
Truck arcs:
Arc 1 connecting 0 and 2 with cost 42.5983 
Arc 2 connecting 2 and 3 with cost 27.3775 
Arc 3 connecting 3 and 10 with cost 38.8179 
Arc 4 connecting 10 and 9 with cost 9.29392 
Arc 5 connecting 9 and 7 with cost 56.5966 
Arc 6 connecting 7 and 8 with cost 17.648 
Arc 7 connecting 8 and 4 with cost 35.9223 
Arc 8 connecting 4 and 6 with cost 5.15188 
Arc 9 connecting 6 and 1 with cost 24.1638 
Arc 10 connecting 1 and 11 with cost 2.89464 
Customer 5 served by drone.
Drone fly from 4 at stage 8 to serve 5 and then fly back to 6 at stage 9. 
Truck arcs during this sortie: 4--->6
Truck travel time from stage 8 to 9 is: 5.15188
Total drone travel time: 3.26815
Drone arrival time: 232.523
Truck arrival time: 234.406
Truck departure time = max(d/a, t/a) plus (sl/sr): 235.406
Done!
-------------------------Re-calculated objective-----------------------
262.465
------------------------------------------------------------------------
Solve time: 1.759
OBJECTIVE VALUE: 262.465, NUMBER OF SORTIES: 1.
Number of revisit: 0
In write mode
